p edge 40 401 15
v 3 5 8 28
v 2 26 29
v 1 12
v 1 16
v 4 2 17 21 25
v 2 10 36
v 1 18
v 4 4 7 24 37
v 2 14 27
v 6 22 23 30 32 33 38
v 4 6 11 15 34
v 4 9 13 31 40
v 3 19 20 39
v 2 3 35
v 1 1
e 1 4
e 1 6
e 1 10
e 1 14
e 1 15
e 1 17
e 1 20
e 1 21
e 1 23
e 1 25
e 1 29
e 1 31
e 1 33
e 1 34
e 1 36
e 1 38
e 1 40
e 2 5
e 2 7
e 2 8
e 2 9
e 2 16
e 2 18
e 2 20
e 2 22
e 2 24
e 2 26
e 2 31
e 2 32
e 2 33
e 2 35
e 2 36
e 2 37
e 2 39
e 2 40
e 3 6
e 3 7
e 3 9
e 3 10
e 3 11
e 3 13
e 3 16
e 3 17
e 3 21
e 3 22
e 3 23
e 3 24
e 3 27
e 3 28
e 3 29
e 3 33
e 3 35
e 3 37
e 3 38
e 4 8
e 4 9
e 4 11
e 4 13
e 4 14
e 4 19
e 4 20
e 4 21
e 4 22
e 4 27
e 4 29
e 4 30
e 4 31
e 4 32
e 4 33
e 4 34
e 4 38
e 5 7
e 5 9
e 5 10
e 5 13
e 5 14
e 5 16
e 5 17
e 5 20
e 5 22
e 5 23
e 5 24
e 5 25
e 5 29
e 5 31
e 5 36
e 5 39
e 6 7
e 6 8
e 6 10
e 6 12
e 6 13
e 6 14
e 6 18
e 6 19
e 6 20
e 6 21
e 6 22
e 6 25
e 6 28
e 6 30
e 6 32
e 6 33
e 6 34
e 6 35
e 6 36
e 6 38
e 7 9
e 7 11
e 7 13
e 7 14
e 7 15
e 7 19
e 7 21
e 7 22
e 7 24
e 7 25
e 7 26
e 7 27
e 7 28
e 7 29
e 7 32
e 7 33
e 7 35
e 7 37
e 7 38
e 7 39
e 7 40
e 8 9
e 8 10
e 8 11
e 8 14
e 8 18
e 8 20
e 8 21
e 8 31
e 8 34
e 8 35
e 8 37
e 8 40
e 9 16
e 9 19
e 9 22
e 9 23
e 9 24
e 9 29
e 9 30
e 9 31
e 9 35
e 9 36
e 9 37
e 9 38
e 9 39
e 9 40
e 10 14
e 10 15
e 10 17
e 10 18
e 10 20
e 10 23
e 10 26
e 10 27
e 10 31
e 10 32
e 10 36
e 10 37
e 10 39
e 11 12
e 11 14
e 11 15
e 11 16
e 11 19
e 11 20
e 11 21
e 11 23
e 11 25
e 11 26
e 11 28
e 11 30
e 11 32
e 11 33
e 11 34
e 11 35
e 11 36
e 11 38
e 11 39
e 12 13
e 12 14
e 12 15
e 12 16
e 12 17
e 12 18
e 12 19
e 12 23
e 12 25
e 12 27
e 12 29
e 12 31
e 12 32
e 12 33
e 12 34
e 12 35
e 12 36
e 12 40
e 13 14
e 13 15
e 13 19
e 13 23
e 13 27
e 13 29
e 13 31
e 13 37
e 14 17
e 14 20
e 14 21
e 14 22
e 14 26
e 14 30
e 14 33
e 14 34
e 14 35
e 14 38
e 14 39
e 14 40
e 15 16
e 15 17
e 15 18
e 15 19
e 15 20
e 15 22
e 15 24
e 15 25
e 15 27
e 15 29
e 15 30
e 15 31
e 15 33
e 15 35
e 15 36
e 15 37
e 15 38
e 16 17
e 16 19
e 16 21
e 16 24
e 16 28
e 16 29
e 16 31
e 16 34
e 16 35
e 16 36
e 16 38
e 17 18
e 17 20
e 17 21
e 17 22
e 17 23
e 17 26
e 17 27
e 17 29
e 17 31
e 17 33
e 17 35
e 17 37
e 17 38
e 18 22
e 18 23
e 18 24
e 18 25
e 18 27
e 18 28
e 18 31
e 18 32
e 18 33
e 18 36
e 18 37
e 19 22
e 19 25
e 19 28
e 19 32
e 19 33
e 19 40
e 20 21
e 20 25
e 20 27
e 20 28
e 20 29
e 20 32
e 20 33
e 20 34
e 20 35
e 20 36
e 20 38
e 20 39
e 21 22
e 21 24
e 21 25
e 21 30
e 21 31
e 21 32
e 21 34
e 21 35
e 21 36
e 21 37
e 21 39
e 22 24
e 22 25
e 22 27
e 22 28
e 22 29
e 22 30
e 22 32
e 22 34
e 22 35
e 22 37
e 22 38
e 22 40
e 23 24
e 23 27
e 23 31
e 23 33
e 23 38
e 23 40
e 24 27
e 24 29
e 24 30
e 24 31
e 24 35
e 24 38
e 24 39
e 24 40
e 25 27
e 25 28
e 25 30
e 25 31
e 25 32
e 25 33
e 25 34
e 25 35
e 25 36
e 25 37
e 26 28
e 26 29
e 26 30
e 26 32
e 26 33
e 26 34
e 26 35
e 26 37
e 26 38
e 26 39
e 26 40
e 27 29
e 27 31
e 27 34
e 27 35
e 27 37
e 27 39
e 27 40
e 28 30
e 28 31
e 28 33
e 28 35
e 28 36
e 28 37
e 28 38
e 28 39
e 29 30
e 29 31
e 29 32
e 29 35
e 29 37
e 29 38
e 29 40
e 30 31
e 30 34
e 30 37
e 31 32
e 31 35
e 31 36
e 31 38
e 31 39
e 31 40
e 32 33
e 32 35
e 32 38
e 32 39
e 33 34
e 33 37
e 33 38
e 33 40
e 35 36
e 35 39
e 35 40
e 36 38
e 36 39
e 36 40
e 37 38
e 37 40
e 38 39
e 39 40
